22478
0 0 1 1 0 0 1 1 1 0 1 1 0 0 0 0 0 0 0 0 1 0 0 1 1 0 1 1 1 1 
7 6 2 27 2 6 2 27 27 28 29 28 10 3 28 7 3 20 27 27 27 24 23 24 10 27 27 28 29 2 6 26 26 24 27 6 20 8 24 24 7 8 6 26 8 26 3 2 6 20 24 24 24 24 8 6 11 8 27 7 29 2 7 8 3 11 23 28 28 11 7 6 6 8 23 23 20 23 8 24 10 2 26 7 29 10 6 2 27 7 28 6 7 11 2 3 11 6 2 28 28 2 11 7 29 24 29 24 27 3 26 29 27 6 11 8 28 7 28 8 26 11 28 6 26 24 2 11 26 28 28 24 11 20 23 8 3 3 28 10 11 27 11 11 11 2 24 2 27 7 24 28 23 28 8 11 2 2 3 3 3 27 10 24 23 27 23 29 3 2 23 20 28 10 26 2 24 10 29 10 2 2 2 6 11 8 28 23 27 2 2 2 6 29 7 6 7 2 10 6 
